NAME : portgen-15-1977
COMMENT : portgen N=15, seed=1977
TYPE : TSP
DIMENSION : 15
EDGE_WEIGHT_TYPE : EUC_2D
NODE_COORD_SECTION
1 217 204
2 400 462
3 550 594
4 615 397
5 999 373
6 223 297
7 431 230
8 368 788
9 88 329
10 339 101
11 112 196
12 922 980
13 759 877
14 666 409
15 336 134
